SAT
49 -96 -50 -80 86 42 -33 -61 100 87 85 -65 11 -26 -23 13 -14 -35 -37 75 68 36 -66 -92 -57 -16 71 98 -12 -1 59 -72 9 25 56 78 -91 10 -60 83 88 7 -73 15 -29 -2 70 -99 -82 -32 -20 -28 -64 -51 18 -5 6 52 77 -69 62 -17 97 34 -30 67 -89 63 -94 -93 90 -74 19 45 58 39 -4 43 46 -53 -40 48 41 3 44 31 -8 84 54 -55 21 81 -95 -22 -76 -27 -38 -79 47 -24 0
